NAME:  temp1.png
TYPE: TSP
DIMENSION:  18
EDGE_WEIGHT_TYPE: EUC_2D
NODE_COORD_SECTION
1 959 379
2 993 379
3 925 413
4 959 413
5 993 413
6 891 447
7 925 447
8 959 447
9 993 447
10 789 481
11 823 481
12 857 481
13 891 481
14 78 582
15 112 582
16 10 616
17 44 616
18 78 616
EOF